21:16:07 | INFO    | Run started | run_id: MR_MV_RD_case2_P10_R3_eps9999 | log file: C:\Users\Asus\Documents\GitHub\logistics-model2\internal-logistics-model2\results\MR_MV_RD\case2\MR_MV_RD_case2_P10_R3_eps9999_2026_05_04_21_16.log
21:16:07 | INFO    | Products loaded | sheet=case2 | rows=10
21:16:07 | INFO    | Data loaded | |N|=26 |Nw|=25 |K|=3 |R|=3 |P|=10 | U=25
21:16:07 | INFO    | Big-M | time=491.0 precedence=480.0 wait=465.0 load_lb=20 load_ub=20
21:16:07 | INFO    | Set parameter Username
21:16:07 | INFO    | Set parameter LicenseID to value 2811848
21:16:07 | INFO    | Academic license - for non-commercial use only - expires 2027-04-22
21:16:07 | INFO    | Objective set | primary: min route_duration | tie-break weight on wait: 0.001
21:16:07 | INFO    | Constraint (3) added | total_wait <= 9999
21:16:07 | INFO    | Constraints (4)-(9) added | route structure
21:16:07 | INFO    | Constraints (10)-(12) added | product assignment
21:16:07 | INFO    | Constraints (13)-(15) added | route timing
21:16:08 | INFO    | Constraints (16) added | time consistency
21:16:08 | INFO    | Constraints (17)-(19) added | service times
21:16:08 | INFO    | Constraints (20)-(22) added | precedence, route closure, waiting
21:16:08 | INFO    | Constraints (23)-(27) added | load propagation
21:16:08 | INFO    | Constraints (28)-(32) added | MTZ and route ordering
21:16:08 | INFO    | Set parameter TimeLimit to value 600
21:16:08 | INFO    | Set parameter MIPGap to value 0.01
21:16:08 | INFO    | Set parameter Presolve to value 2
21:16:08 | INFO    | Set parameter LogFile to value "C:\Users\Asus\Documents\GitHub\logistics-model2\internal-logistics-model2\results\MR_MV_RD\case2\result_MR_MV_RD_case2_P10_R3_eps9999_2026_05_04_21_16.log"
21:16:08 | INFO    | Solver configured | TimeLimit=600s | MIPGap=0.01 | gurobi_log=C:\Users\Asus\Documents\GitHub\logistics-model2\internal-logistics-model2\results\MR_MV_RD\case2\result_MR_MV_RD_case2_P10_R3_eps9999_2026_05_04_21_16.log
21:16:08 | INFO    | Optimization starting...
21:16:08 | INFO    | Gurobi Optimizer version 12.0.0 build v12.0.0rc1 (win64 - Windows 10.0 (19045.2))
21:16:08 | INFO    | 
21:16:08 | INFO    | CPU model: 12th Gen Intel(R) Core(TM) i7-12650H, instruction set [SSE2|AVX|AVX2]
21:16:08 | INFO    | Thread count: 10 physical cores, 16 logical processors, using up to 16 threads
21:16:08 | INFO    | 
21:16:08 | INFO    | Non-default parameters:
21:16:08 | INFO    | TimeLimit  600
21:16:08 | INFO    | MIPGap  0.01
21:16:08 | INFO    | Presolve  2
21:16:08 | INFO    | 
21:16:08 | INFO    | Optimize a model with 24692 rows, 7327 columns and 125779 nonzeros
21:16:08 | INFO    | Model fingerprint: 0xc834470e
21:16:08 | INFO    | Variable types: 1162 continuous, 6165 integer (5940 binary)
21:16:08 | INFO    | Coefficient statistics:
21:16:08 | INFO    |   Matrix range     [1e+00, 5e+02]
21:16:08 | INFO    |   Objective range  [1e-03, 1e+00]
21:16:08 | INFO    |   Bounds range     [1e+00, 3e+01]
21:16:08 | INFO    |   RHS range        [1e+00, 1e+04]
21:16:08 | INFO    | Presolve removed 18198 rows and 5304 columns
21:16:08 | INFO    | Presolve time: 0.22s
21:16:08 | INFO    | Presolved: 6494 rows, 2023 columns, 43816 nonzeros
21:16:08 | INFO    | Variable types: 475 continuous, 1548 integer (1440 binary)
21:16:08 | INFO    | Root relaxation presolve removed 33 rows and 0 columns
21:16:08 | INFO    | Root relaxation presolved: 6461 rows, 2047 columns, 43552 nonzeros
21:16:08 | INFO    | 
21:16:08 | INFO    | 
21:16:08 | INFO    | Root relaxation: objective 0.000000e+00, 718 iterations, 0.06 seconds (0.11 work units)
21:16:09 | INFO    | 
21:16:09 | INFO    |     Nodes    |    Current Node    |     Objective Bounds      |     Work
21:16:09 | INFO    |  Expl Unexpl |  Obj  Depth IntInf | Incumbent    BestBd   Gap | It/Node Time
21:16:09 | INFO    | 
21:16:09 | INFO    |      0     0    0.00000    0   69          -    0.00000      -     -    0s
21:16:09 | INFO    |      0     0    0.00000    0  167          -    0.00000      -     -    0s
21:16:09 | INFO    |      0     0    0.00000    0  144          -    0.00000      -     -    0s
21:16:09 | INFO    |      0     0    0.00000    0   77          -    0.00000      -     -    1s
21:16:09 | INFO    |      0     0    0.00000    0   86          -    0.00000      -     -    1s
21:16:09 | INFO    |      0     0    0.00602    0  118          -    0.00602      -     -    1s
21:16:09 | INFO    |      0     0    0.00901    0  114          -    0.00901      -     -    1s
21:16:09 | INFO    |      0     0    0.01051    0  125          -    0.01051      -     -    1s
21:16:09 | INFO    |      0     0    0.03000    0  155          -    0.03000      -     -    1s
21:16:09 | INFO    | H    0     0                     202.4480000    0.03000   100%     -    1s
21:16:09 | INFO    |      0     0    0.03000    0  120  202.44800    0.03000   100%     -    1s
21:16:10 | INFO    |      0     0    0.03000    0  129  202.44800    0.03000   100%     -    1s
21:16:10 | INFO    |      0     0    0.03000    0  127  202.44800    0.03000   100%     -    1s
21:16:10 | INFO    |      0     0    0.03000    0   89  202.44800    0.03000   100%     -    2s
21:16:10 | INFO    |      0     0    0.03000    0  104  202.44800    0.03000   100%     -    2s
21:16:11 | INFO    |      0     0    0.03000    0   85  202.44800    0.03000   100%     -    2s
21:16:11 | INFO    |      0     0    0.03000    0   97  202.44800    0.03000   100%     -    2s
21:16:11 | INFO    | H    0     0                     183.2830000    0.03000   100%     -    3s
21:16:11 | INFO    | H    0     0                     183.2770000    0.03000   100%     -    3s
21:16:11 | INFO    |      0     0    0.03000    0   92  183.27700    0.03000   100%     -    3s
21:16:11 | INFO    | H    0     0                     174.2530000    0.03000   100%     -    3s
21:16:11 | INFO    |      0     0    0.03000    0  101  174.25300    0.03000   100%     -    3s
21:16:12 | INFO    |      0     0    0.03000    0   86  174.25300    0.03000   100%     -    3s
21:16:12 | INFO    |      0     0    0.03000    0   86  174.25300    0.03000   100%     -    3s
21:16:13 | INFO    |      0     2    0.03000    0   74  174.25300    0.03000   100%     -    4s
21:16:13 | INFO    |     76   262    0.03000    8   65  174.25300    0.03000   100%   241    5s
21:16:13 | INFO    | H  432   498                     169.2460000    0.03000   100%   107    5s
21:16:15 | INFO    | H  903   820                     168.2590000    0.03000   100%  70.3    6s
21:16:16 | INFO    | H 1597  1076                     167.2580000    0.03000   100%  52.6    7s
21:16:16 | INFO    | H 2530  1637                     165.2620000    0.03000   100%  45.1    8s
21:16:17 | INFO    | H 2534  1557                     163.2540000    0.03000   100%  45.0    9s
21:16:18 | INFO    |   2537  1559   37.04400   42   88  163.25400    0.03000   100%  45.0   10s
21:16:19 | INFO    | H 2541  1483                     161.2520000    0.03000   100%  44.9   11s
21:16:21 | INFO    | H 2545  1412                     158.2550000    0.03000   100%  44.9   12s
21:16:22 | INFO    | H 2548  1343                     154.3510000    0.03000   100%  44.8   14s
21:16:23 | INFO    |   2551  1345    0.03000   17   78  154.35100    0.03000   100%  44.7   15s
21:16:24 | INFO    | H 2552  1277                     154.2200000    0.03000   100%  44.7   16s
21:16:24 | INFO    | H 2552  1213                     154.2180000    0.03000   100%  44.7   16s
21:16:28 | INFO    |   2981  1492    0.05400   38   64  154.21800    0.03000   100%  92.7   20s
21:16:29 | INFO    | H 3200  1498                     154.2120000    0.03000   100%  96.4   20s
21:16:29 | INFO    | H 3231  1430                     153.2110000    0.03000   100%  96.8   20s
21:16:30 | INFO    | H 3498  1489                     153.2040000    0.03000   100%  98.1   21s
21:16:33 | INFO    |   4638  1788    0.06300   27   65  153.20400    0.03000   100%  95.2   25s
21:16:38 | INFO    |   7073  2984    0.03044   37  113  153.20400    0.03000   100%   102   30s
21:16:41 | INFO    | H 7780  3329                     144.4560000    0.03000   100%   101   33s
21:16:43 | INFO    |   8749  4104   99.20726   50   32  144.45600    0.03000   100%   102   35s
21:16:45 | INFO    | H 9253  4227                     137.5050000    0.03000   100%   104   36s
21:16:47 | INFO    | H10254  5353                     137.4990000    0.03000   100%   108   39s
21:16:48 | INFO    |  10758  6346    0.05550   54   57  137.49900    0.03000   100%   107   40s
21:16:51 | INFO    | H13682  7113                     127.4810000    0.03000   100%   102   43s
21:16:53 | INFO    |  14285  7464    0.07581   37   57  127.48100    0.03000   100%   102   45s
21:16:54 | INFO    | H14299  7390                     122.4280000    0.03000   100%   102   46s
21:16:54 | INFO    | H14303  7368                     121.4260000    0.03000   100%   102   46s
21:16:58 | INFO    | H15886  8298                     119.4320000    0.03000   100%   102   49s
21:16:59 | INFO    |  15932  8700    0.08330   35  117  119.43200    0.03000   100%   102   51s
21:17:04 | INFO    |  18754 10918    2.15253   34   76  119.43200    0.03000   100%   103   55s
21:17:08 | INFO    |  21236 11725   58.08076   58   44  119.43200    0.03000   100%   102   60s
21:17:14 | INFO    |  24170 13486    0.03000   32   98  119.43200    0.03000   100%   105   65s
21:17:18 | INFO    |  27377 15643 infeasible  119       119.43200    0.03000   100%   104   70s
21:17:24 | INFO    |  29386 16215    0.03011   83   88  119.43200    0.03000   100%   104   76s
21:17:29 | INFO    |  31126 17390    0.03000   97   72  119.43200    0.03000   100%   104   81s
21:17:44 | INFO    |  32995 18741    0.03800   39   93  119.43200    0.03000   100%   105   96s
21:17:50 | INFO    |  35746 19666    0.08400   27   70  119.43200    0.03000   100%   107  101s
21:17:50 | INFO    | H35844 19666                     119.4120000    0.03000   100%   107  101s
21:17:54 | INFO    |  37385 20880   59.78316   54   29  119.41200    0.03000   100%   108  106s
21:17:58 | INFO    |  39873 22116    0.08400   61   96  119.41200    0.03000   100%   109  110s
21:18:04 | INFO    |  43086 23628    0.03000   49  101  119.41200    0.03000   100%   111  116s
21:18:08 | INFO    |  44461 24705    0.05535   87   82  119.41200    0.03000   100%   111  120s
21:18:15 | INFO    |  48023 26374    0.04038   93   78  119.41200    0.03000   100%   112  126s
21:18:19 | INFO    |  48894 26412    0.03200   53   64  119.41200    0.03000   100%   113  130s
21:18:23 | INFO    |  49218 27020  105.21300   94   28  119.41200    0.03000   100%   113  135s
21:18:28 | INFO    |  51632 28684    0.03044   87   99  119.41200    0.03000   100%   114  140s
21:18:34 | INFO    |  55177 30227    1.64831   87  115  119.41200    0.03000   100%   114  146s
21:18:39 | INFO    |  56408 31050    0.03018   40   95  119.41200    0.03000   100%   115  150s
21:18:45 | INFO    |  59726 32562   67.12500   59   64  119.41200    0.03000   100%   115  156s
21:18:49 | INFO    |  62057 33404   82.10700   83   38  119.41200    0.03000   100%   115  161s
21:18:53 | INFO    |  62516 34213    0.03799   84   75  119.41200    0.03000   100%   116  165s
21:19:00 | INFO    |  65933 36168    0.06800   52   96  119.41200    0.03000   100%   117  171s
21:19:04 | INFO    |  68375 37713    0.66856   86   51  119.41200    0.03000   100%   117  176s
21:19:10 | INFO    |  71720 39095 infeasible   63       119.41200    0.03000   100%   117  181s
21:19:14 | INFO    |  75024 40846 infeasible   71       119.41200    0.03000   100%   115  185s
21:19:18 | INFO    |  76354 41061    0.14541   63   55  119.41200    0.03000   100%   115  190s
21:19:23 | INFO    |  76591 41264    0.14703   66   45  119.41200    0.03000   100%   115  195s
21:19:29 | INFO    |  77832 42345    0.03050   47  108  119.41200    0.03000   100%   115  200s
21:19:35 | INFO    |  80639 43796    0.05701   38   61  119.41200    0.03000   100%   116  207s
21:19:39 | INFO    | H81623 44149                     119.4120000    0.03000   100%   116  211s
21:19:45 | INFO    |  83186 45268    0.03896   29   83  119.41200    0.03000   100%   117  216s
21:19:49 | INFO    |  85413 46172   64.11100   47   52  119.41200    0.03000   100%   118  221s
21:19:55 | INFO    |  87327 47340  115.25500   62   28  119.41200    0.03000   100%   118  226s
21:19:59 | INFO    |  89440 48471 infeasible   74       119.41200    0.03000   100%   119  231s
21:20:05 | INFO    |  91193 49189   79.11672   58   61  119.41200    0.03000   100%   120  236s
21:20:10 | INFO    |  92517 50565   81.16928  101   89  119.41200    0.03000   100%   120  241s
21:20:15 | INFO    |  95007 51880    0.07180   50   67  119.41200    0.03000   100%   121  246s
21:20:20 | INFO    |  97346 53188   90.20009   74   23  119.41200    0.03000   100%   121  251s
21:20:25 | INFO    |  99706 54330 infeasible   43       119.41200    0.03000   100%   121  257s
21:20:30 | INFO    |  101780 55490    0.03326   56   82  119.41200    0.03000   100%   122  261s
21:20:34 | INFO    |  102948 55769    0.03075   35   95  119.41200    0.03000   100%   122  265s
21:20:34 | INFO    | H103184 55674                     118.4370000    0.03000   100%   122  265s
21:20:38 | INFO    |  104335 56642    0.04698   56   77  118.43700    0.03000   100%   122  270s
21:20:43 | INFO    |  106303 57937 infeasible  106       118.43700    0.03000   100%   122  275s
21:20:48 | INFO    |  109829 59850    0.03020   49   90  118.43700    0.03000   100%   122  280s
21:20:55 | INFO    |  112602 62092   65.06152   77   75  118.43700    0.03000   100%   122  286s
21:20:59 | INFO    |  115382 62737    0.03013   48  100  118.43700    0.03000   100%   122  291s
21:20:59 | INFO    | H115441 62737                     118.4340000    0.03000   100%   122  291s
21:21:09 | INFO    |  115615 65299    0.03013   49   99  118.43400    0.03000   100%   122  300s
21:21:14 | INFO    |  122289 66933    0.03013   43  104  118.43400    0.03000   100%   122  306s
21:21:19 | INFO    |  123483 67445   71.71006   89   34  118.43400    0.03000   100%   123  310s
21:21:25 | INFO    |  123517 67496 infeasible   90       118.43400    0.03000   100%   123  316s
21:21:30 | INFO    |  123871 67828 infeasible   92       118.43400    0.03000   100%   123  321s
21:21:30 | INFO    | H123876 67826                     118.4200000    0.03000   100%   123  321s
21:21:35 | INFO    |  125021 68837    0.16542   71   84  118.42000    0.03000   100%   123  327s
21:21:38 | INFO    |  126024 69457    0.06123   40   62  118.42000    0.03000   100%   123  330s
21:21:41 | INFO    | H127439 69878                     118.3980000    0.03000   100%   123  333s
21:21:44 | INFO    |  127776 70546    0.03212   41   96  118.39800    0.03000   100%   123  336s
21:21:50 | INFO    |  129888 71542 infeasible   64       118.39800    0.03000   100%   124  341s
21:21:50 | INFO    | H130504 71262                     116.3990000    0.03000   100%   124  341s
21:21:56 | INFO    |  131897 72150    0.11202   53   63  116.39900    0.03000   100%   124  347s
21:22:03 | INFO    |  132241 74131   55.06507   54   50  116.39900    0.03000   100%   124  355s
21:22:10 | INFO    |  137758 76002 infeasible   77       116.39900    0.03000   100%   125  362s
21:22:13 | INFO    |  138902 76036    0.03162   81   97  116.39900    0.03000   100%   125  365s
21:22:18 | INFO    |  139582 77026    0.04746  105   90  116.39900    0.03000   100%   125  370s
21:22:24 | INFO    |  141737 78497   61.04721   64   76  116.39900    0.03000   100%   125  375s
21:22:30 | INFO    |  144010 79142    0.07032   69   71  116.39900    0.03000   100%   126  381s
21:22:35 | INFO    |  145042 80558    0.03450   47   55  116.39900    0.03000   100%   126  387s
21:22:38 | INFO    |  146322 81309  103.33400   64   19  116.39900    0.03000   100%   126  390s
21:22:41 | INFO    | H147974 81719                     116.3840000    0.03000   100%   126  393s
21:22:44 | INFO    |  148215 82399  102.23746   50   47  116.38400    0.03000   100%   126  395s
21:22:49 | INFO    |  150350 83343    0.04842   88  140  116.38400    0.03000   100%   126  400s
21:22:54 | INFO    |  152078 84693    0.03000   55   96  116.38400    0.03000   100%   126  406s
21:23:00 | INFO    |  154494 87126    0.03000   50   91  116.38400    0.03000   100%   126  411s
21:23:05 | INFO    |  157810 87732    0.05901   52   87  116.38400    0.03000   100%   125  416s
21:23:08 | INFO    |  158410 88286    0.05901   54   95  116.38400    0.03000   100%   125  420s
21:23:15 | INFO    |  160523 89863    0.57724   58  133  116.38400    0.03000   100%   126  427s
21:23:20 | INFO    |  162425 91098    1.90701  111  107  116.38400    0.03000   100%   126  432s
21:23:23 | INFO    |  163395 92301    0.03024   45  105  116.38400    0.03000   100%   126  435s
21:23:29 | INFO    |  166466 93633    0.13711   84  121  116.38400    0.03000   100%   126  440s
21:23:34 | INFO    |  169392 95437    0.03000   43   84  116.38400    0.03000   100%   126  445s
21:23:38 | INFO    |  172377 97129 infeasible   55       116.38400    0.03000   100%   125  450s
21:23:44 | INFO    |  173353 97638    0.03029   32  117  116.38400    0.03000   100%   126  455s
21:23:50 | INFO    |  174672 98834    0.03600   40   66  116.38400    0.03000   100%   126  461s
21:23:54 | INFO    |  176485 99798    0.04521   58   46  116.38400    0.03000   100%   126  466s
21:23:59 | INFO    |  178137 100742    0.22504   52   84  116.38400    0.03000   100%   126  470s
21:24:04 | INFO    |  180099 102618    0.03000   48   88  116.38400    0.03000   100%   126  475s
21:24:09 | INFO    |  183366 103668    0.03703   59   76  116.38400    0.03000   100%   126  481s
21:24:14 | INFO    |  185479 104930    0.03173   69   84  116.38400    0.03000   100%   126  485s
21:24:19 | INFO    |  188202 106057   85.12542   51   53  116.38400    0.03000   100%   126  491s
21:24:23 | INFO    |  188224 106073   85.17400   53   48  116.38400    0.03000   100%   126  495s
21:24:28 | INFO    |  188252 106088   85.17400   55   48  116.38400    0.03000   100%   126  500s
21:24:36 | INFO    |  188543 106446    0.03768   80  107  116.38400    0.03000   100%   126  507s
21:24:41 | INFO    |  189538 107627   90.20923   74   67  116.38400    0.03000   100%   126  512s
21:24:43 | INFO    |  190822 108201    0.07000   39   73  116.38400    0.03000   100%   126  515s
21:24:49 | INFO    |  192912 109157   66.13700   66   70  116.38400    0.03000   100%   126  520s
21:24:54 | INFO    |  194131 110403    0.05476   85   79  116.38400    0.03000   100%   127  526s
21:25:00 | INFO    |  196228 111628   36.19420   54   81  116.38400    0.03000   100%   127  531s
21:25:05 | INFO    |  198272 112757  109.60207   67   23  116.38400    0.03000   100%   127  537s
21:25:08 | INFO    |  199142 112789    0.05600   46   69  116.38400    0.03000   100%   127  540s
21:25:40 | INFO    |  199200 118679    0.05600   47   63  116.38400    0.03000   100%   127  571s
21:25:44 | INFO    |  209200 119471    0.25350   82   33  116.38400    0.03000   100%   128  576s
21:25:51 | INFO    |  211810 120927    2.58581   76   73  116.38400    0.03000   100%   129  583s
21:25:54 | INFO    |  212908 121100    0.03476   51   91  116.38400    0.03000   100%   129  586s
21:26:01 | INFO    |  213817 122053    0.03244   65   99  116.38400    0.03000   100%   129  593s
21:26:05 | INFO    |  214852 122899   59.82660   79   22  116.38400    0.03000   100%   129  597s
21:26:08 | INFO    |  216206 123446 infeasible  116       116.38400    0.03000   100%   129  600s
21:26:08 | INFO    | 
21:26:08 | INFO    | Cutting planes:
21:26:08 | INFO    |   Learned: 201
21:26:08 | INFO    |   Gomory: 12
21:26:08 | INFO    |   Lift-and-project: 1
21:26:08 | INFO    |   Cover: 371
21:26:08 | INFO    |   Implied bound: 592
21:26:08 | INFO    |   Projected implied bound: 23
21:26:08 | INFO    |   Clique: 38
21:26:08 | INFO    |   MIR: 574
21:26:08 | INFO    |   Mixing: 15
21:26:08 | INFO    |   StrongCG: 19
21:26:08 | INFO    |   Flow cover: 3545
21:26:08 | INFO    |   Inf proof: 82
21:26:08 | INFO    |   Zero half: 28
21:26:08 | INFO    |   RLT: 195
21:26:08 | INFO    |   Relax-and-lift: 175
21:26:08 | INFO    |   PSD: 2
21:26:08 | INFO    | 
21:26:08 | INFO    | Explored 217111 nodes (28118229 simplex iterations) in 600.27 seconds (747.84 work units)
21:26:08 | INFO    | Thread count was 16 (of 16 available processors)
21:26:08 | INFO    | 
21:26:08 | INFO    | Solution count 10: 116.384 116.399 118.398 ... 121.426
21:26:08 | INFO    | 
21:26:08 | INFO    | Time limit reached
21:26:08 | INFO    | Best objective 1.163840000000e+02, best bound 2.999999999910e-02, gap 99.9742%
21:26:08 | INFO    | Solution found | route_duration=116.00 | total_wait=384.00
21:26:08 | INFO    | Objective=116.38 | runtime=600.27s | MIP Gap=99.97%
21:26:08 | INFO    | Generating Excel output | C:\Users\Asus\Documents\GitHub\logistics-model2\internal-logistics-model2\results\MR_MV_RD\case2\result_MR_MV_RD_case2_P10_R3_eps9999_2026_05_04_21_16.xlsx
21:26:09 | INFO    | Excel output written | 12 sheets | C:\Users\Asus\Documents\GitHub\logistics-model2\internal-logistics-model2\results\MR_MV_RD\case2\result_MR_MV_RD_case2_P10_R3_eps9999_2026_05_04_21_16.xlsx
21:26:10 | INFO    | Master Pareto updated | 22 total rows | C:\Users\Asus\Documents\GitHub\logistics-model2\internal-logistics-model2\results\master_pareto.xlsx
21:26:10 | INFO    | Run complete | run_id=MR_MV_RD_case2_P10_R3_eps9999
